Translating instance to solver...

Set parameter TimeLimit to value 28800
Gurobi Optimizer version 11.0.2 build v11.0.2rc0 (linux64 - "Ubuntu 22.04.4 LTS")

CPU model: Intel(R) Xeon(R) Gold 5120 CPU @ 2.20GHz, instruction set [SSE2|AVX|AVX2|AVX512]
Thread count: 28 physical cores, 56 logical processors, using up to 28 threads

Academic license 2463511 - for non-commercial use only - registered to lu___@cefet-rj.br
Optimize a model with 4615 rows, 3173 columns and 12057 nonzeros
Model fingerprint: 0x578a0b39
Variable types: 1 continuous, 3172 integer (3160 binary)
Coefficient statistics:
  Matrix range     [1e+00, 1e+05]
  Objective range  [3e-01, 8e-01]
  Bounds range     [1e+00, 8e+00]
  RHS range        [1e+00, 8e+01]
Presolve removed 4073 rows and 2918 columns
Presolve time: 0.05s
Presolved: 542 rows, 255 columns, 1714 nonzeros
Variable types: 0 continuous, 255 integer (244 binary)

Root relaxation: objective 1.889728e+00, 184 iterations, 0.00 seconds (0.00 work units)

    Nodes    |    Current Node    |     Objective Bounds      |     Work
 Expl Unexpl |  Obj  Depth IntInf | Incumbent    BestBd   Gap | It/Node Time

     0     0    1.88973    0   19          -    1.88973      -     -    0s
H    0     0                       3.3294550    1.92212  42.3%     -    0s
     0     0    1.98642    0   56    3.32946    1.98642  40.3%     -    0s
H    0     0                       2.5735640    1.98642  22.8%     -    0s
     0     0    1.98642    0   58    2.57356    1.98642  22.8%     -    0s
     0     0    2.04675    0   48    2.57356    2.04675  20.5%     -    0s
     0     0    2.13910    0  100    2.57356    2.13910  16.9%     -    0s
     0     0    2.25199    0   72    2.57356    2.25199  12.5%     -    0s
     0     0    2.25311    0   72    2.57356    2.25311  12.5%     -    0s
     0     2    2.25311    0   72    2.57356    2.25311  12.5%     -    0s

Cutting planes:
  Learned: 13
  Gomory: 4
  Implied bound: 23
  Clique: 2
  MIR: 13
  Zero half: 9
  RLT: 21
  Relax-and-lift: 6
  BQP: 7

Explored 116 nodes (3243 simplex iterations) in 0.35 seconds (0.20 work units)
Thread count was 28 (of 56 available processors)

Solution count 2: 2.57356 3.32946 

Optimal solution found (tolerance 1.00e-04)
Best objective 2.573564000000e+00, best bound 2.573564000000e+00, gap 0.0000%

Solver Wallclock Time (for this epsilon): 0.35498785972595215 s
Python wallclock Time (for this epsilon): 0.7589869499206543 s


Total Elapsed Time (since program call): 7.978235483169556 s

Results:

I = 2.573564 mA
C = 85.0 points
C ~= 34.0 km^2

Minimum Epsilon for this instance = 9
Maximum Epsilon for this instance = 96

Current Epsilon = 81


Preprocessing Time (for this epsilon): 0.0017285346984863281 s


Updated solution vectors:
sol_I = [-0.611782,-0.9176730000000001,-1.061782,-1.061782,-1.061782,-1.511782,-1.511782,-1.817673,-2.573564]
sol_C = [9.0,19.0,38.0,49.0,47.0,60.0,65.0,73.0,85.0]
sol_eps = [9,18,27,36,45,54,63,72,81]
sol_gap = [0.0,0.0,0.0,0.0,0.0,0.0,0.0,0.0,0.0]
